param n := 2;

param m := 2;

param K := 20;

param a :=
1 	 0.114746
2 	 0.949489
;
 param A :=
[1, *, *]:  1	2	:=
1	-0.100176	-0.183726	
2	0.156779	-0.525946	

[2, *, *]:  1	2	:=
1	0.806759	-0.994259	
2	0.147359	0.234290	
;